
!OPT AM1
*xyz 0 1
C    4.29180000   3.65880000   0.00000000
H    4.64850000   2.65000000   0.00000000
H    4.64850000   4.16320000   0.87070000
H    4.64850000   4.16320000  -0.87970000
H    3.22180000   3.65880000   0.00000000
*
%geom Constraints
{ A 0 1 2 C }
end
end
%MaxCore 2000
%pal
nprocs 1
end