
!NEB xtb2
*xyz -1 1
C   -0.70637438   0.17262761   0.33274280
C    0.66341999  -0.09380323  -0.02190072
Cl   0.93285615  -0.54317439  -2.00868470
H   -0.75988375   0.40510595   1.41897230
H   -1.35842310  -0.68636215   0.17450073
H   -1.11501365   1.04130165  -0.18353795
H    1.09141043  -0.99646697   0.39572993
H    1.33775101   0.75153227   0.03379214
O   -0.97892360   0.73164394   2.84233599
H   -1.92653911   0.89354531   2.87895947
*
%neb
product "struct2.xyz"
nimages 3
end
%MaxCore 500
%pal
nprocs 4
end