
!NEB xtb2
*xyz -1 1
C   -0.74277000   0.14309000   0.12635000
C    0.71308000  -0.12855000  -0.16358000
Cl   0.90703000  -0.47793000  -1.61303000
H   -0.84928000   0.38704000   1.20767000
H   -1.36298000  -0.72675000  -0.06978000
H   -1.11617000   0.99405000  -0.43583000
H    1.06397000  -0.95639000   0.44985000
H    1.30839000   0.75217000   0.07028000
O   -0.91651000   0.74066000   3.00993000
H   -1.82448000   0.94856000   3.28105000
*
%neb
product "struct2.xyz"
nimages 3
end
%MaxCore 500
%pal
nprocs 4
end