
!SP HF Def2-SVP
*xyz 0 1
H   -1.43860000  -0.26820000   0.00000000
H   -2.03860000  -0.26820000   0.00000000
*
%MaxCore 500
%pal
nprocs 4
end