
!FREQ M062X Def2-SVP
*xyz -1 1
Cl   0.00000000   0.00000000   0.00000000
*
%MaxCore 2000
%pal
nprocs 1
end