!SP M062X Def2-SVP
*xyz -1 1
Cl   0.00000000   0.00000000   0.00000000
*
%pal
nprocs 4
end