%chk=in.chk
%nproc=1
%mem=2000MB
#p opt(ts, NoEigenTest, CalcFC) M062X/Def2SVP

File created by ccinput

0 1
N    1.08764072  -0.33994563  -0.00972525
H    1.99826837   0.05502843   0.00651241
H    0.59453997  -0.48560162   0.83949232
H    0.66998094  -0.58930117  -0.87511947

