%chk=in.chk
%nproc=1
%mem=2000MB
#p opt M062X/Def2SVP

File created by ccinput

-1 1
Cl   0.00000000   0.00000000   0.00000000

