!FREQ PM3
*xyz 1 1
C   -2.90770000   1.66310000   0.00000000
H   -2.55100000   2.16750000   0.87370000
H   -3.97770000   1.66310000   0.00000000
H   -2.55100000   2.16750000  -0.87370000
*
%pal
nprocs 1
end