%chk=in.chk
%nproc=1
%mem=2000MB
#p sp HF/Def2SVP

File created by ccinput

0 1
H   -1.43860000  -0.26820000   0.00000000
H   -2.03860000  -0.26820000   0.00000000

