!NMR M062X Def2-SVP Def2/J
*xyz 0 1
C   -1.31970000  -0.64380000   0.00000000
H   -0.96310000  -1.65260000   0.00000000
H   -0.96310000  -0.13940000  -0.87370000
H   -2.38970000  -0.64380000   0.00000000
C   -0.80640000   0.08220000   1.25740000
H   -1.16150000   1.09160000   1.25640000
H   -1.16470000  -0.42110000   2.13110000
O    0.62360000   0.07990000   1.25870000
H    0.94410000   0.53240000   2.04240000
*
%MaxCore 2000
%pal
nprocs 1
end